experiment/data/hgs-res/Vrp-Set-Li-n601/Vrp-Set-Li-n601-hgs/0.hgs1.tour
Route #1: 98 158 218 278 338 398 458 459 460 520 519 518 517 516 515 575 576 577 578 579 580 581 582 583 584 524 523 522 521 461 462 463 464 465 466 467 407 347 348 288 228 168
Route #2: 22 23 24 25 26 27 28 29 30 31 32 33 34 35 36 37 38 39 99 100 101 102 103 104 105 106 107 108 109 110 111 51 50 49 48 47 46 45 44 43 42 41
Route #3: 167 166 165 225 226 227 287 286 346 406 405 404 403 402 401 400 399 339 340 341 342 343 344 345 285 284 283 282 281 280 279 219 220 221 222 223 224 164 163 162 161 160 159 40
Route #4: 52 171 170 230 290 291 351 411 412 472 532 533 534 535 595 594 593 592 591 590 589 588 587 586 585 525 526 527 528 529 530 531 471 470 469 468 408 409 410 350 349 289 229 169
Route #5: 53 113 173 233 293 294 354 414 415 416 417 477 537 538 539 540 481 482 483 484 485 486 487 488 489 549 548 547 546 545 544 543 542 541 600 599 598 597 596 536 476 475 474 473 413 353 352 292 232 231 172 112
Route #6: 55 56 57 58 59 60 1 2 3 4 5 6 7 8 9 10 11
Route #7: 54 114 115 175 174 234 235 296 297 298 299 300 241 242 243 244 245 246 247 248 249 250 251 252 253 193 192 191 190 189 188 187 186 185 184 183 182 181 240 239 238 237 177 117
Route #8: 15 14 13 12 72 71 70 69 68 67 66 65 64 63 62 61 120 119 118 178 179 180 121 122 123 124 125 126 127 128 129 130 131 132 133 74 75 76 77 78 18 19
Route #9: 16 135 195 255 315 375 374 373 372 371 370 369 368 367 366 365 364 363 362 361 420 419 359 360 301 302 303 304 305 306 307 308 309 310 311 312 313 314 254 194 134 73
Route #10: 116 176 236 295 355 356 357 358 418 478 479 480 421 422 423 424 425 426 427 428 429 430 490 550 551 552 553 554 555 495 494 493 492 491 431 432 433 434 435 436 376 316 256 196 136 17
Route #11: 137 197 257 317 318 378 377 437 497 496 556 557 558 559 560 561 562 502 501 500 499 498 438 439 440 441 442 443 444 445 446 447 448 449 389 388 387 386 385 384 383 382 381 380 379 319 260 200 140 80
Route #12: 20 79 138 139 199 198 258 259 320 321 322 323 324 325 326 327 328 329 330 331 332 333 334 335 275 274 273 272 271 270 269 268 267 266 265 264 263 262 261 201 141 81 21
Route #13: 95 94 93 92 91 90 89 88 148 149 150 151 152 153 154 155 215 214 213 212 211 210 209 208 207 206 205 204 203 202 142 143 144 145 146 147 87 86 85 84 83 82
Route #14: 96 156 216 276 336 396 395 394 393 392 391 390 450 451 452 512 511 510 509 508 507 506 505 504 503 563 564 565 566 567 568 569 570 571 572 573 574 514 513 453 454 455 456 457 397 337 277 217 157 97
Cost 13700.7
